NAME : brg180.optbc.tour
TYPE : TOUR
DIMENSION : 180
TOUR_SECTION
1
12
11
10
9
8
162
163
164
165
166
167
168
157
158
159
160
161
129
128
127
126
125
124
123
122
121
132
131
130
49
60
59
58
57
56
55
54
53
52
51
50
110
111
112
113
114
115
116
117
118
119
120
109
37
48
47
46
45
44
43
42
41
40
39
38
99
98
97
108
107
106
105
104
103
102
101
100
145
156
155
154
153
152
151
150
149
148
147
146
64
65
66
67
68
69
70
71
72
61
62
63
29
28
27
26
25
36
35
34
33
32
31
30
133
144
143
142
141
140
139
138
137
136
135
134
89
88
87
86
85
96
95
94
93
92
91
90
17
16
15
14
13
24
23
22
21
20
19
18
75
74
73
84
83
82
81
80
79
78
77
76
179
178
177
176
175
174
173
172
171
170
169
180
7
6
5
4
3
2
-1
